/* Objective function */
max: +420 C1 +420 C2 +420 C3 +360 C4 +360 C5 +360 C6 +300 C7 +300 C8 +300 C9;

/* Constraints */
+C1 +C4 +C7 <= 750;
+C2 +C5 +C8 <= 900;
+C3 +C6 +C9 <= 450;
+20 C1 +15 C4 +12 C7 <= 13000;
+20 C2 +15 C5 +12 C8 <= 12000;
+20 C3 +15 C6 +12 C9 <= 5000;
+C1 +C2 +C3 <= 900;
+C4 +C5 +C6 <= 1200;
+C7 +C8 +C9 <= 750;
+900 C1 -750 C2 +900 C4 -750 C5 +900 C7 -750 C8 = 0;
-450 C1 +750 C3 -450 C4 +750 C6 -450 C7 +750 C9 = 0;
+450 C2 -900 C3 +450 C5 -900 C6 +450 C8 -900 C9 = 0;
R13: +C1 >= 0;
R14: +C2 >= 0;
R15: +C3 >= 0;
R16: +C4 >= 0;
R17: +C5 >= 0;
R18: +C6 >= 0;
R19: +C7 >= 0;
R20: +C8 >= 0;
R21: +C9 >= 0;

/* Integer definitions */
int C1,C2,C3,C4,C5,C6,C7,C8,C9;
